presolving:
(round 1, fast)       0 del vars, 0 del conss, 0 add conss, 0 chg bounds, 5 chg sides, 141 chg coeffs, 0 upgd conss, 0 impls, 150 clqs
   (0.0s) running MILP presolver
   (0.0s) MILP presolver (2 rounds): 0 aggregations, 0 fixings, 0 bound changes
(round 2, medium)     0 del vars, 160 del conss, 156 add conss, 0 chg bounds, 5 chg sides, 141 chg coeffs, 0 upgd conss, 0 impls, 150 clqs
(round 3, exhaustive) 0 del vars, 160 del conss, 156 add conss, 0 chg bounds, 5 chg sides, 141 chg coeffs, 152 upgd conss, 0 impls, 150 clqs
(round 4, fast)       0 del vars, 160 del conss, 156 add conss, 0 chg bounds, 5 chg sides, 291 chg coeffs, 152 upgd conss, 0 impls, 150 clqs
   (0.0s) probing: 51/750 (6.8%) - 0 fixings, 0 aggregations, 0 implications, 0 bound changes
   (0.0s) probing aborted: 50/50 successive totally useless probings
   (0.0s) symmetry computation started: requiring (bin +, int -, cont +), (fixed: bin -, int +, cont -)
   (0.1s) symmetry computation finished: 128 generators found (max: 1500, log10 of symmetry group size: 207.2)
(round 5, exhaustive) 0 del vars, 160 del conss, 161 add conss, 0 chg bounds, 5 chg sides, 291 chg coeffs, 152 upgd conss, 0 impls, 150 clqs
presolving (6 rounds: 6 fast, 4 medium, 3 exhaustive):
 0 deleted vars, 160 deleted constraints, 161 added constraints, 0 tightened bounds, 0 added holes, 5 changed sides, 291 changed coefficients
 0 implications, 150 cliques
presolved problem has 750 variables (750 bin, 0 int, 0 impl, 0 cont) and 161 constraints
      2 constraints of type <knapsack>
    150 constraints of type <setppc>
      4 constraints of type <linear>
      5 constraints of type <orbitope>
transformed objective value is always integral (scale: 1)
Presolving Time: 0.09

 time | node  | left  |LP iter|LP it/n|mem/heur|mdpt |vars |cons |rows |cuts |sepa|confs|strbr|  dualbound   | primalbound  |  gap   | compl. 
p 0.1s|     1 |     0 |     0 |     - |  clique|   0 | 750 | 161 | 156 |   0 |  0 |   0 |   0 | 3.369450e+05 | 3.086200e+04 | 991.78%| unknown
p 0.1s|     1 |     0 |     0 |     - | vbounds|   0 | 750 | 161 | 156 |   0 |  0 |   2 |   0 | 3.369450e+05 | 3.109600e+04 | 983.56%| unknown
  0.1s|     1 |     0 |   133 |     - |    12M |   0 | 750 | 161 | 156 |   0 |  0 |   2 |   0 | 3.330205e+04 | 3.109600e+04 |   7.09%| unknown
r 0.1s|     1 |     0 |   133 |     - |rounding|   0 | 750 | 161 | 156 |   0 |  0 |   2 |   0 | 3.330205e+04 | 3.191500e+04 |   4.35%| unknown
i 0.1s|     1 |     0 |   133 |     - |  oneopt|   0 | 750 | 161 | 156 |   0 |  0 |   2 |   0 | 3.330205e+04 | 3.236500e+04 |   2.90%| unknown
  0.2s|     1 |     0 |   137 |     - |    13M |   0 | 750 | 161 | 159 |   3 |  1 |   2 |   0 | 3.330167e+04 | 3.236500e+04 |   2.89%| unknown
  0.2s|     1 |     0 |   143 |     - |    13M |   0 | 750 | 161 | 163 |   7 |  2 |   2 |   0 | 3.327754e+04 | 3.236500e+04 |   2.82%| unknown
  0.2s|     1 |     0 |   148 |     - |    14M |   0 | 750 | 161 | 165 |   9 |  3 |   2 |   0 | 3.327062e+04 | 3.236500e+04 |   2.80%| unknown
  0.2s|     1 |     0 |   153 |     - |    14M |   0 | 750 | 161 | 169 |  13 |  4 |   2 |   0 | 3.326776e+04 | 3.236500e+04 |   2.79%| unknown
  0.3s|     1 |     0 |   158 |     - |    15M |   0 | 750 | 161 | 173 |  17 |  5 |   2 |   0 | 3.326315e+04 | 3.236500e+04 |   2.78%| unknown
  0.3s|     1 |     0 |   161 |     - |    15M |   0 | 750 | 161 | 176 |  20 |  6 |   2 |   0 | 3.326179e+04 | 3.236500e+04 |   2.77%| unknown
  0.3s|     1 |     0 |   170 |     - |    16M |   0 | 750 | 161 | 178 |  22 |  7 |   2 |   0 | 3.324127e+04 | 3.236500e+04 |   2.71%| unknown
  0.4s|     1 |     0 |   174 |     - |    17M |   0 | 750 | 161 | 182 |  26 |  8 |   2 |   0 | 3.324117e+04 | 3.236500e+04 |   2.71%| unknown
  0.4s|     1 |     0 |   178 |     - |    18M |   0 | 750 | 161 | 184 |  28 |  9 |   2 |   0 | 3.324092e+04 | 3.236500e+04 |   2.71%| unknown
  0.5s|     1 |     0 |   189 |     - |    18M |   0 | 750 | 161 | 185 |  29 | 10 |   2 |   0 | 3.324092e+04 | 3.236500e+04 |   2.71%| unknown
 time | node  | left  |LP iter|LP it/n|mem/heur|mdpt |vars |cons |rows |cuts |sepa|confs|strbr|  dualbound   | primalbound  |  gap   | compl. 
  0.5s|     1 |     0 |   194 |     - |    18M |   0 | 750 | 161 | 187 |  32 | 11 |   2 |   0 | 3.323851e+04 | 3.236500e+04 |   2.70%| unknown
  0.5s|     1 |     0 |   215 |     - |    18M |   0 | 750 | 161 | 191 |  36 | 12 |   2 |   0 | 3.323534e+04 | 3.236500e+04 |   2.69%| unknown
  0.5s|     1 |     0 |   232 |     - |    18M |   0 | 750 | 161 | 195 |  40 | 13 |   2 |   0 | 3.322947e+04 | 3.236500e+04 |   2.67%| unknown
  0.5s|     1 |     0 |   248 |     - |    18M |   0 | 750 | 161 | 201 |  46 | 14 |   2 |   0 | 3.322491e+04 | 3.236500e+04 |   2.66%| unknown
  0.5s|     1 |     0 |   271 |     - |    18M |   0 | 750 | 161 | 206 |  51 | 15 |   2 |   0 | 3.315972e+04 | 3.236500e+04 |   2.46%| unknown
  0.6s|     1 |     0 |   277 |     - |    18M |   0 | 750 | 161 | 212 |  57 | 16 |   2 |   0 | 3.315862e+04 | 3.236500e+04 |   2.45%| unknown
  0.6s|     1 |     0 |   292 |     - |    18M |   0 | 750 | 161 | 206 |  61 | 17 |   2 |   0 | 3.315862e+04 | 3.236500e+04 |   2.45%| unknown
  0.6s|     1 |     0 |   319 |     - |    19M |   0 | 750 | 161 | 211 |  66 | 18 |   2 |   0 | 3.315862e+04 | 3.236500e+04 |   2.45%| unknown
  0.6s|     1 |     0 |   355 |     - |    19M |   0 | 750 | 161 | 216 |  71 | 19 |   2 |   0 | 3.315862e+04 | 3.236500e+04 |   2.45%| unknown
  0.6s|     1 |     0 |   373 |     - |    19M |   0 | 750 | 161 | 221 |  76 | 20 |   2 |   0 | 3.315862e+04 | 3.236500e+04 |   2.45%| unknown
  0.6s|     1 |     0 |   393 |     - |    19M |   0 | 750 | 161 | 225 |  80 | 21 |   2 |   0 | 3.315862e+04 | 3.236500e+04 |   2.45%| unknown
  0.7s|     1 |     0 |   428 |     - |    19M |   0 | 750 | 161 | 228 |  83 | 22 |   2 |   0 | 3.308915e+04 | 3.236500e+04 |   2.24%| unknown
  0.7s|     1 |     0 |   446 |     - |    19M |   0 | 750 | 161 | 219 |  87 | 23 |   2 |   0 | 3.308915e+04 | 3.236500e+04 |   2.24%| unknown
  0.7s|     1 |     0 |   468 |     - |    20M |   0 | 750 | 161 | 223 |  91 | 24 |   2 |   0 | 3.308915e+04 | 3.236500e+04 |   2.24%| unknown
  0.7s|     1 |     0 |   491 |     - |    20M |   0 | 750 | 161 | 229 |  97 | 25 |   2 |   0 | 3.308915e+04 | 3.236500e+04 |   2.24%| unknown
 time | node  | left  |LP iter|LP it/n|mem/heur|mdpt |vars |cons |rows |cuts |sepa|confs|strbr|  dualbound   | primalbound  |  gap   | compl. 
  0.7s|     1 |     0 |   513 |     - |    20M |   0 | 750 | 161 | 233 | 101 | 26 |   2 |   0 | 3.308915e+04 | 3.236500e+04 |   2.24%| unknown
  0.7s|     1 |     0 |   543 |     - |    20M |   0 | 750 | 161 | 237 | 105 | 27 |   2 |   0 | 3.308915e+04 | 3.236500e+04 |   2.24%| unknown
  0.7s|     1 |     0 |   566 |     - |    20M |   0 | 750 | 161 | 241 | 109 | 28 |   2 |   0 | 3.308915e+04 | 3.236500e+04 |   2.24%| unknown
  0.8s|     1 |     0 |   583 |     - |    20M |   0 | 750 | 161 | 222 | 113 | 29 |   2 |   0 | 3.308915e+04 | 3.236500e+04 |   2.24%| unknown
  0.8s|     1 |     0 |   603 |     - |    20M |   0 | 750 | 161 | 226 | 117 | 30 |   2 |   0 | 3.308915e+04 | 3.236500e+04 |   2.24%| unknown
  0.8s|     1 |     0 |   618 |     - |    20M |   0 | 750 | 161 | 231 | 122 | 31 |   2 |   0 | 3.308915e+04 | 3.236500e+04 |   2.24%| unknown
  0.8s|     1 |     0 |   640 |     - |    20M |   0 | 750 | 161 | 236 | 127 | 32 |   2 |   0 | 3.308915e+04 | 3.236500e+04 |   2.24%| unknown
L 1.3s|     1 |     0 |  1474 |     - |    rens|   0 | 750 | 161 | 236 | 127 | 32 |   2 |   0 | 3.308915e+04 | 3.281900e+04 |   0.82%| unknown
  1.3s|     1 |     0 |  1474 |     - |    20M |   0 | 750 | 161 | 236 | 127 | 32 |   2 |   0 | 3.308915e+04 | 3.281900e+04 |   0.82%| unknown
  1.3s|     1 |     0 |  1488 |     - |    21M |   0 | 750 | 161 | 241 | 132 | 33 |   2 |   0 | 3.308915e+04 | 3.281900e+04 |   0.82%| unknown
  1.3s|     1 |     0 |  1519 |     - |    21M |   0 | 750 | 161 | 243 | 134 | 34 |   2 |   0 | 3.306403e+04 | 3.281900e+04 |   0.75%| unknown
  1.4s|     1 |     2 |  1520 |     - |    21M |   0 | 750 | 161 | 243 | 134 | 34 |   2 |  29 | 3.306248e+04 | 3.281900e+04 |   0.74%| unknown
  2.7s|   100 |    83 |  6476 |  58.5 |    38M |  17 | 750 | 162 | 191 | 196 |  1 |   3 |  29 | 3.306248e+04 | 3.281900e+04 |   0.74%|   9.75%
  4.2s|   200 |   169 | 11675 |  55.2 |    54M |  20 | 750 | 163 | 197 | 274 |  1 |   4 |  29 | 3.306248e+04 | 3.281900e+04 |   0.74%|   9.97%
  6.4s|   300 |   261 | 19918 |  64.3 |    69M |  20 | 750 | 165 | 194 | 386 |  1 |   6 |  29 | 3.305294e+04 | 3.281900e+04 |   0.71%|  14.28%
 time | node  | left  |LP iter|LP it/n|mem/heur|mdpt |vars |cons |rows |cuts |sepa|confs|strbr|  dualbound   | primalbound  |  gap   | compl. 
  7.5s|   400 |   353 | 23713 |  57.7 |    71M |  22 | 750 | 168 | 199 | 462 |  1 |   9 |  29 | 3.305228e+04 | 3.281900e+04 |   0.71%|  14.37%
  8.7s|   500 |   447 | 30262 |  59.3 |    71M |  25 | 750 | 168 | 193 | 522 |  1 |   9 |  29 | 3.305030e+04 | 3.281900e+04 |   0.70%|  14.67%
 10.2s|   600 |   531 | 36299 |  59.5 |    71M |  25 | 750 | 168 | 201 | 626 |  2 |   9 |  29 | 3.304362e+04 | 3.281900e+04 |   0.68%|  15.59%
 11.4s|   700 |   611 | 39995 |  56.2 |    73M |  25 | 750 | 168 | 200 | 721 |  1 |   9 |  29 | 3.303419e+04 | 3.281900e+04 |   0.66%|  16.96%
 12.3s|   800 |   709 | 46309 |  57.1 |    73M |  25 | 750 | 169 | 203 | 766 |  1 |  11 |  29 | 3.303373e+04 | 3.281900e+04 |   0.65%|  17.09%
 13.5s|   900 |   797 | 51607 |  56.6 |    74M |  25 | 750 | 176 | 201 | 826 |  1 |  18 |  29 | 3.303203e+04 | 3.281900e+04 |   0.65%|  17.50%
 14.4s|  1000 |   873 | 55698 |  55.1 |    75M |  27 | 750 | 183 | 200 | 874 |  1 |  25 |  41 | 3.303167e+04 | 3.281900e+04 |   0.65%|  17.61%
 15.8s|  1100 |   953 | 60193 |  54.1 |    76M |  27 | 750 | 185 |   0 | 976 |  0 |  27 |  55 | 3.303144e+04 | 3.281900e+04 |   0.65%|  18.00%
 16.7s|  1200 |  1031 | 64105 |  52.9 |    77M |  28 | 750 | 185 | 198 |1045 |  1 |  27 |  55 | 3.303077e+04 | 3.281900e+04 |   0.65%|  18.64%
 18.0s|  1300 |  1099 | 68178 |  52.0 |    78M |  28 | 750 | 198 |   0 |1140 |  0 |  41 |  70 | 3.303037e+04 | 3.281900e+04 |   0.64%|  20.02%
 18.9s|  1400 |  1181 | 72012 |  51.0 |    79M |  29 | 750 | 200 | 199 |1191 |  1 |  43 |  70 | 3.303019e+04 | 3.281900e+04 |   0.64%|  20.13%
 19.4s|  1500 |  1271 | 76260 |  50.4 |    79M |  31 | 750 | 201 | 198 |1224 |  1 |  45 |  70 | 3.302999e+04 | 3.281900e+04 |   0.64%|  20.16%
 20.1s|  1600 |  1345 | 78905 |  48.9 |    79M |  31 | 750 | 204 | 201 |1272 |  1 |  48 | 100 | 3.302999e+04 | 3.281900e+04 |   0.64%|  20.60%
 21.0s|  1700 |  1421 | 82390 |  48.1 |    79M |  31 | 750 | 211 | 200 |1348 |  1 |  55 | 111 | 3.302999e+04 | 3.281900e+04 |   0.64%|  20.96%
 21.4s|  1800 |  1497 | 84428 |  46.5 |    79M |  31 | 750 | 212 | 199 |1378 |  1 |  56 | 111 | 3.302928e+04 | 3.281900e+04 |   0.64%|  21.13%
 time | node  | left  |LP iter|LP it/n|mem/heur|mdpt |vars |cons |rows |cuts |sepa|confs|strbr|  dualbound   | primalbound  |  gap   | compl. 
 21.8s|  1900 |  1583 | 86592 |  45.2 |    80M |  35 | 750 | 216 | 200 |1400 |  1 |  60 | 111 | 3.302901e+04 | 3.281900e+04 |   0.64%|  21.16%
 22.4s|  2000 |  1647 | 89349 |  44.4 |    80M |  35 | 750 | 237 | 201 |1425 |  1 |  81 | 137 | 3.302831e+04 | 3.281900e+04 |   0.64%|  21.33%
 23.0s|  2100 |  1709 | 91454 |  43.2 |    80M |  37 | 750 | 253 | 199 |1446 |  2 |  97 | 213 | 3.302754e+04 | 3.281900e+04 |   0.64%|  21.47%
 23.4s|  2200 |  1783 | 94012 |  42.4 |    80M |  37 | 750 | 256 | 203 |1478 |  1 | 100 | 216 | 3.302679e+04 | 3.281900e+04 |   0.63%|  21.56%
Restart triggered after 50 consecutive estimations that the remaining tree will be large
(run 1, node 2274) performing user restart

(restart) converted 15 cuts from the global cut pool into linear constraints

presolving:
(round 1, fast)       0 del vars, 2 del conss, 0 add conss, 0 chg bounds, 0 chg sides, 2 chg coeffs, 0 upgd conss, 0 impls, 151 clqs
(round 2, exhaustive) 0 del vars, 2 del conss, 0 add conss, 0 chg bounds, 0 chg sides, 2 chg coeffs, 15 upgd conss, 0 impls, 151 clqs
(round 3, exhaustive) 0 del vars, 9 del conss, 0 add conss, 0 chg bounds, 0 chg sides, 10 chg coeffs, 15 upgd conss, 0 impls, 151 clqs
presolving (4 rounds: 4 fast, 3 medium, 3 exhaustive):
 0 deleted vars, 9 deleted constraints, 0 added constraints, 0 tightened bounds, 0 added holes, 0 changed sides, 10 changed coefficients
 0 implications, 151 cliques
presolved problem has 750 variables (750 bin, 0 int, 0 impl, 0 cont) and 262 constraints
     17 constraints of type <knapsack>
    151 constraints of type <setppc>
      9 constraints of type <linear>
      5 constraints of type <orbitope>
     80 constraints of type <logicor>
transformed objective value is always integral (scale: 1)
Presolving Time: 0.12
transformed 82/100 original solutions to the transformed problem space

 time | node  | left  |LP iter|LP it/n|mem/heur|mdpt |vars |cons |rows |cuts |sepa|confs|strbr|  dualbound   | primalbound  |  gap   | compl. 
 23.7s|     1 |     0 | 96034 |     - |    81M |   0 | 750 | 262 | 171 |   0 |  0 | 100 | 216 | 3.302629e+04 | 3.281900e+04 |   0.63%| unknown
 23.7s|     1 |     0 | 96046 |     - |    81M |   0 | 750 | 262 | 176 |   5 |  1 | 100 | 216 | 3.302629e+04 | 3.281900e+04 |   0.63%| unknown
 23.7s|     1 |     0 | 96063 |     - |    81M |   0 | 750 | 262 | 182 |  11 |  2 | 100 | 216 | 3.302629e+04 | 3.281900e+04 |   0.63%| unknown
 23.8s|     1 |     0 | 96095 |     - |    81M |   0 | 750 | 262 | 188 |  17 |  3 | 100 | 216 | 3.302629e+04 | 3.281900e+04 |   0.63%| unknown
 23.8s|     1 |     0 | 96124 |     - |    81M |   0 | 750 | 262 | 193 |  22 |  4 | 100 | 216 | 3.302629e+04 | 3.281900e+04 |   0.63%| unknown
 23.9s|     1 |     0 | 96139 |     - |    81M |   0 | 750 | 262 | 198 |  27 |  5 | 100 | 216 | 3.302629e+04 | 3.281900e+04 |   0.63%| unknown
 24.0s|     1 |     0 | 96160 |     - |    81M |   0 | 750 | 262 | 203 |  32 |  6 | 100 | 216 | 3.302629e+04 | 3.281900e+04 |   0.63%| unknown
 24.0s|     1 |     0 | 96192 |     - |    81M |   0 | 750 | 262 | 209 |  38 |  7 | 100 | 216 | 3.302629e+04 | 3.281900e+04 |   0.63%| unknown
 24.1s|     1 |     0 | 96202 |     - |    81M |   0 | 750 | 262 | 213 |  42 |  8 | 100 | 216 | 3.302629e+04 | 3.281900e+04 |   0.63%| unknown
 24.2s|     1 |     0 | 96216 |     - |    81M |   0 | 750 | 262 | 217 |  46 |  9 | 100 | 216 | 3.302629e+04 | 3.281900e+04 |   0.63%| unknown
 24.2s|     1 |     0 | 96226 |     - |    81M |   0 | 750 | 262 | 222 |  51 | 10 | 100 | 216 | 3.302629e+04 | 3.281900e+04 |   0.63%| unknown
 24.3s|     1 |     0 | 96245 |     - |    81M |   0 | 750 | 262 | 227 |  56 | 11 | 100 | 216 | 3.302629e+04 | 3.281900e+04 |   0.63%| unknown
 24.3s|     1 |     0 | 96255 |     - |    81M |   0 | 750 | 262 | 226 |  60 | 12 | 100 | 216 | 3.302629e+04 | 3.281900e+04 |   0.63%| unknown
 24.3s|     1 |     0 | 96273 |     - |    82M |   0 | 750 | 262 | 230 |  64 | 13 | 100 | 216 | 3.302629e+04 | 3.281900e+04 |   0.63%| unknown
 24.3s|     1 |     0 | 96301 |     - |    82M |   0 | 750 | 262 | 234 |  68 | 14 | 100 | 216 | 3.302629e+04 | 3.281900e+04 |   0.63%| unknown
 time | node  | left  |LP iter|LP it/n|mem/heur|mdpt |vars |cons |rows |cuts |sepa|confs|strbr|  dualbound   | primalbound  |  gap   | compl. 
 24.4s|     1 |     0 | 96317 |     - |    82M |   0 | 750 | 262 | 238 |  72 | 15 | 100 | 216 | 3.302629e+04 | 3.281900e+04 |   0.63%| unknown
 24.4s|     1 |     0 | 96328 |     - |    82M |   0 | 750 | 262 | 242 |  76 | 16 | 100 | 216 | 3.302629e+04 | 3.281900e+04 |   0.63%| unknown
 24.4s|     1 |     0 | 96340 |     - |    82M |   0 | 750 | 262 | 246 |  80 | 17 | 100 | 216 | 3.302629e+04 | 3.281900e+04 |   0.63%| unknown
 24.7s|     1 |     2 | 96778 |     - |    82M |   0 | 750 | 262 | 246 |  80 | 17 | 100 | 258 | 3.302629e+04 | 3.281900e+04 |   0.63%| unknown
 25.7s|   100 |    93 |101080 |  42.0 |    83M |  22 | 750 | 263 | 197 | 141 |  1 | 101 | 258 | 3.302629e+04 | 3.281900e+04 |   0.63%|  10.87%
 26.8s|   200 |   177 |104506 |  41.7 |    83M |  29 | 750 | 269 | 199 | 214 |  1 | 107 | 302 | 3.301486e+04 | 3.281900e+04 |   0.60%|  14.18%
 27.9s|   300 |   259 |107033 |  41.1 |    83M |  39 | 750 | 276 | 201 | 233 |  1 | 114 | 643 | 3.301486e+04 | 3.281900e+04 |   0.60%|  14.54%
 28.8s|   400 |   323 |108800 |  40.2 |    83M |  44 | 750 | 278 | 201 | 306 |  1 | 118 | 677 | 3.301486e+04 | 3.281900e+04 |   0.60%|  14.58%
 30.2s|   500 |   381 |110245 |  39.3 |    84M |  56 | 750 | 300 | 197 | 385 |  1 | 141 | 805 | 3.301486e+04 | 3.281900e+04 |   0.60%|  14.58%
 30.8s|   600 |   432 |111663 |  38.4 |    84M |  56 | 750 | 303 | 199 | 416 |  1 | 144 | 857 | 3.301486e+04 | 3.281900e+04 |   0.60%|  14.59%
 31.0s|   700 |   468 |113267 |  37.6 |    84M |  56 | 750 | 302 | 197 | 429 |  1 | 144 | 866 | 3.301486e+04 | 3.281900e+04 |   0.60%|  14.61%
r31.4s|   797 |   539 |115169 |  37.1 |ziroundi|  56 | 750 | 302 | 199 | 454 |  1 | 144 | 866 | 3.301445e+04 | 3.281900e+04 |   0.60%|  14.67%
 31.5s|   800 |   540 |115413 |  37.1 |    84M |  56 | 750 | 302 | 198 | 454 |  0 | 144 | 866 | 3.301445e+04 | 3.281900e+04 |   0.60%|  14.67%
r31.7s|   849 |   316 |116259 |  36.8 |ziroundi|  56 | 750 | 303 | 196 | 471 |  1 | 145 | 866 | 3.301445e+04 | 3.296900e+04 |   0.14%|  16.48%
 31.8s|   900 |   335 |116538 |  36.3 |    84M |  56 | 750 | 306 | 197 | 473 |  2 | 149 | 866 | 3.301445e+04 | 3.296900e+04 |   0.14%|  16.48%
 time | node  | left  |LP iter|LP it/n|mem/heur|mdpt |vars |cons |rows |cuts |sepa|confs|strbr|  dualbound   | primalbound  |  gap   | compl. 
 32.1s|  1000 |   369 |117140 |  35.4 |    84M |  56 | 750 | 313 | 203 | 499 |  1 | 156 | 866 | 3.301441e+04 | 3.296900e+04 |   0.14%|  17.52%
 32.5s|  1100 |   393 |118099 |  34.6 |    84M |  56 | 750 | 314 | 201 | 524 |  1 | 161 | 871 | 3.301441e+04 | 3.296900e+04 |   0.14%|  17.58%
 33.0s|  1200 |   439 |119640 |  34.1 |    84M |  56 | 750 | 327 | 199 | 540 |  1 | 174 | 871 | 3.301399e+04 | 3.296900e+04 |   0.14%|  18.74%
 33.4s|  1300 |   462 |120243 |  33.3 |    84M |  56 | 750 | 335 | 201 | 552 |  1 | 182 | 901 | 3.301399e+04 | 3.296900e+04 |   0.14%|  18.74%
 33.7s|  1400 |   499 |121347 |  32.7 |    84M |  56 | 750 | 337 | 199 | 588 |  0 | 189 | 901 | 3.301102e+04 | 3.296900e+04 |   0.13%|  21.50%
 33.9s|  1500 |   513 |121821 |  31.9 |    84M |  56 | 750 | 345 | 199 | 594 |  0 | 197 | 915 | 3.301024e+04 | 3.296900e+04 |   0.13%|  22.18%
 34.4s|  1600 |   549 |122882 |  31.4 |    84M |  56 | 750 | 359 | 200 | 615 |  1 | 211 | 959 | 3.298769e+04 | 3.296900e+04 |   0.06%|  25.65%
 34.9s|  1700 |   331 |123699 |  30.8 |    84M |  56 | 750 | 370 | 226 | 635 |  0 | 235 | 959 | 3.298491e+04 | 3.296900e+04 |   0.05%|  51.43%

SCIP Status        : problem is solved [optimal solution found]
Solving Time (sec) : 34.90
Solving Nodes      : 1708 (total of 3982 nodes in 2 runs)
Primal Bound       : +3.29690000000000e+04 (654 solutions)
Dual Bound         : +3.29690000000000e+04
Gap                : 0.00 %
Solve Status: optimal
Solve Time: 34.90 seconds
